Maximize
  - 5.488260038755801 edge_0_1_0_0 - 3.3203567595415 edge_0_2_0_0
   - 3.3247160435832 edge_0_4_0_0 - 3.467018023109 edge_0_5_0_0
   - 3.2620977344664 edge_0_6_0_0 - 2.10049361448 edge_0_12_0_0
   - 2.0725996042101 edge_0_15_0_0 + 0.4860424509085842 edge_1_2_0_0
   - 0.56889350101008 edge_1_4_0_0 - 1.289851647673008 edge_1_5_0_0
   - 1.919063168902363 edge_1_6_0_0 + 3.457919518332564 edge_2_1_0_0
   + 0.4999014053105068 edge_2_3_0_0 + 3.0831934393143 edge_2_4_0_0
   + 1.379530614846824 edge_2_5_0_0 + 0.9807636888297164 edge_2_6_0_0
   + 0.6252480322270393 edge_2_7_0_0 + 0.3858400747737079 edge_2_9_0_0
   + 0.3962111418669702 edge_2_10_0_0 + 0.3483390123810882 edge_2_12_0_0
   + 0.386747545475842 edge_2_13_0_0 + 0.4141305688075513 edge_2_15_0_0
   + 0.2523439067813479 edge_2_16_0_0 + 0.2635572616126653 edge_2_18_0_0
   + 0.2020586197723837 edge_2_19_0_0 + 0.0438665153061615 edge_2_21_0_0
   + 0.2348603540978736 edge_2_22_0_0 - 0.293612994944726 edge_2_23_0_0
   - 0.593092678563142 edge_2_24_0_0 + 0.2635815646823643 edge_2_25_0_0
   - 0.3654437280009992 edge_3_2_0_0 - 0.2269750468860055 edge_3_5_0_0
   - 0.6011277159885948 edge_3_6_0_0 + 0.28679249492964 edge_4_1_0_0
   + 0.1803829028240402 edge_4_2_0_0 + 3.174403934976 edge_4_3_0_0
   + 2.525509824710232 edge_4_5_0_0 + 1.95109034206373 edge_4_6_0_0
   + 1.695499701608754 edge_4_7_0_0 + 1.16678401456187 edge_4_9_0_0
   + 1.279326230984174 edge_4_10_0_0 + 0.783771531306268 edge_4_12_0_0
   + 1.619502398154653 edge_4_13_0_0 + 1.442514914819409 edge_4_15_0_0
   + 1.984172947862482 edge_4_16_0_0 + 1.333718845802685 edge_4_18_0_0
   + 2.057403666660223 edge_4_19_0_0 + 1.345731631787553 edge_4_21_0_0
   + 2.313771501676636 edge_4_22_0_0 + 2.2534496277025 edge_4_23_0_0
   + 1.398819744818923 edge_4_24_0_0 + 0.1892802255688335 edge_4_25_0_0
   - 1.167105219859334 edge_5_2_0_0 - 0.6646864024378899 edge_5_4_0_0
   - 0.0788715551825983 edge_5_6_0_0 - 0.2130913756454711 edge_5_7_0_0
   - 0.7332437132301458 edge_5_9_0_0 - 0.5081589393643888 edge_5_10_0_0
   - 0.3677613156144218 edge_5_12_0_0 - 0.2705539615567338 edge_5_22_0_0
   - 0.1806261331938482 edge_6_2_0_0 + 1.254163257441812 edge_6_3_0_0
   + 0.63760887444037 edge_6_4_0_0 + 0.9808389019166736 edge_6_5_0_0
   + 2.023589918956237 edge_6_7_0_0 + 0.7366394767276532 edge_6_9_0_0
   + 1.134709878249416 edge_6_10_0_0 + 1.509119435641669 edge_6_12_0_0
   + 1.318032222077993 edge_6_13_0_0 + 2.170787093240071 edge_6_15_0_0
   + 1.901232741240547 edge_6_16_0_0 + 1.865202655372864 edge_6_18_0_0
   + 2.619887845830955 edge_6_19_0_0 + 1.989651135808 edge_6_21_0_0
   + 1.950066705758417 edge_6_22_0_0 + 3.74316356017823 edge_6_23_0_0
   + 2.567298759243258 edge_6_24_0_0 + 0.5335722560098539 edge_6_25_0_0
   - 1.61824913573348 edge_7_2_0_0 - 0.5682624973714446 edge_7_5_0_0
   - 0.7478148863516949 edge_7_6_0_0 - 0.2862366428716908 edge_7_9_0_0
   - 0.5548160930626588 edge_7_10_0_0 - 0.1936697515965403 edge_7_12_0_0
   - 0.5368789080870431 edge_9_2_0_0 - 0.6954849148943164 edge_9_4_0_0
   - 0.2665480623157784 edge_9_5_0_0 - 0.0978900105188265 edge_9_6_0_0
   + 0.581415939587691 edge_9_7_0_0 + 0.5874802749337499 edge_9_10_0_0
   + 0.2681568764245643 edge_9_12_0_0 + 0.7593110647702024 edge_9_13_0_0
   + 0.2555598346835788 edge_9_15_0_0 + 0.8402560835339279 edge_9_16_0_0
   + 0.1417683282066379 edge_9_18_0_0 + 0.9383049772107045 edge_9_19_0_0
   + 0.1324533596188686 edge_9_21_0_0 + 1.112866002396061 edge_9_22_0_0
   + 0.1376058834699538 edge_9_24_0_0 + 0.1961247301274254 edge_9_25_0_0
   - 1.288138591171383 edge_10_2_0_0 - 0.4007255679250242 edge_10_7_0_0
   - 0.4116722772515449 edge_10_9_0_0 - 0.1602180011751674 edge_10_12_0_0
   - 0.4882588598595161 edge_10_13_0_0 - 0.4353918950483215 edge_12_2_0_0
   - 0.0439237423908972 edge_12_3_0_0 - 0.34002696631488 edge_12_4_0_0
   - 0.3072574474215753 edge_12_5_0_0 + 0.2000863857488082 edge_12_6_0_0
   + 0.4680313622104835 edge_12_7_0_0 - 0.052215427854326 edge_12_9_0_0
   + 0.3254415603731032 edge_12_10_0_0 + 0.500953393018272 edge_12_13_0_0
   + 0.5884163290697216 edge_12_15_0_0 + 0.6252559775248654 edge_12_16_0_0
   + 0.4123507935502768 edge_12_18_0_0 + 0.7194315459382017 edge_12_19_0_0
   + 0.3578418086433398 edge_12_21_0_0 + 0.7240912460261579 edge_12_22_0_0
   + 1.331577724688911 edge_12_23_0_0 + 0.6937554905672974 edge_12_24_0_0
   + 0.2050942867763739 edge_12_25_0_0 - 0.351039231272874 edge_13_12_0_0
   - 0.1269064337787345 edge_13_15_0_0 - 0.6321254265004796 edge_13_16_0_0
   - 0.6535502307136181 edge_15_2_0_0 - 0.1351950393535839 edge_15_3_0_0
   - 0.5655046014288206 edge_15_5_0_0 - 0.2917934148852522 edge_15_6_0_0
   + 0.028630305521221 edge_15_7_0_0 - 0.6965678044940575 edge_15_9_0_0
   - 0.2807530952182499 edge_15_10_0_0 + 0.100015813043714 edge_15_12_0_0
   + 0.7042924124596174 edge_15_13_0_0 + 0.8975157823904846 edge_15_15_0_0
   + 1.160026923846301 edge_15_16_0_0 + 1.556792723586487 edge_15_18_0_0
   + 1.533179490261923 edge_15_19_0_0 + 0.9624418263348316 edge_15_21_0_0
   + 1.194272635678547 edge_15_22_0_0 + 2.144294905795972 edge_15_23_0_0
   + 1.354741896561419 edge_15_24_0_0 + 0.4211228745471713 edge_15_25_0_0
   - 0.7113126343929741 edge_16_15_0_0 - 0.3294641455102283 edge_16_18_0_0
   - 0.6964964857434286 edge_16_19_0_0 - 1.594485889543264 edge_18_2_0_0
   - 1.292461066729857 edge_18_5_0_0 - 1.37386513729406 edge_18_6_0_0
   - 1.156088923810529 edge_18_7_0_0 - 0.8569066892675399 edge_18_9_0_0
   - 0.6050702121257169 edge_18_10_0_0 - 0.4742691492016516 edge_18_12_0_0
   - 0.2293770003327253 edge_18_13_0_0 + 0.3466952698181749 edge_18_15_0_0
   + 0.7961984334234036 edge_18_16_0_0 + 1.34492393705381 edge_18_19_0_0
   + 1.371988978454659 edge_18_21_0_0 + 1.115634962775907 edge_18_22_0_0
   + 1.94475904397565 edge_18_23_0_0 + 1.371763972772232 edge_18_24_0_0
   + 0.4431502318401923 edge_18_25_0_0 - 0.6683574069817335 edge_19_18_0_0
   - 0.3690309533517551 edge_19_21_0_0 - 0.7191934981459557 edge_19_22_0_0
   - 0.6593513582553105 edge_21_12_0_0 - 0.7319883148521708 edge_21_13_0_0
   - 0.3936590278151905 edge_21_15_0_0 - 0.1779267950311312 edge_21_16_0_0
   + 0.5115979122279848 edge_21_18_0_0 + 0.74959123446725 edge_21_19_0_0
   + 1.044224917750961 edge_21_22_0_0 + 2.059276618353131 edge_21_23_0_0
   + 1.75731622325103 edge_21_24_0_0 + 0.6937880714525682 edge_21_25_0_0
   - 0.2204086674094722 edge_22_15_0_0 - 0.7317325673646197 edge_22_21_0_0
   - 0.4015380029510185 edge_22_24_0_0 - 0.7959757523417127 edge_23_19_0_0
   - 0.599691831848691 edge_23_21_0_0 - 0.5323659041663482 edge_23_24_0_0
   - 1.149264447936096 edge_24_15_0_0 - 0.7296458461448398 edge_24_16_0_0
   - 0.7685593196140144 edge_24_18_0_0 - 0.2407849194693612 edge_24_19_0_0
   - 0.00419018708772501 edge_24_21_0_0 + 0.9397716722464472 edge_24_22_0_0
   - 0.2018631949356789 edge_24_23_0_0 + 0.7000586791333954 edge_24_25_0_0
   - 1.149330668573112 edge_25_24_0_0
Subject To
 one_parent_1: edge_0_1_0_0 + edge_2_1_0_0 + edge_4_1_0_0 = 1
 consume_one_flow_unit_1: flow_0_1_0_0 - flow_1_2_0_0 - flow_1_4_0_0
   - flow_1_5_0_0 - flow_1_6_0_0 + flow_2_1_0_0 + flow_4_1_0_0 = 1
 one_parent_2: edge_0_2_0_0 + edge_1_2_0_0 + edge_3_2_0_0 + edge_4_2_0_0
   + edge_5_2_0_0 + edge_6_2_0_0 + edge_7_2_0_0 + edge_9_2_0_0
   + edge_10_2_0_0 + edge_12_2_0_0 + edge_15_2_0_0 + edge_18_2_0_0 = 1
 consume_one_flow_unit_2: flow_0_2_0_0 + flow_1_2_0_0 - flow_2_1_0_0
   - flow_2_3_0_0 - flow_2_4_0_0 - flow_2_5_0_0 - flow_2_6_0_0
   - flow_2_7_0_0 - flow_2_9_0_0 - flow_2_10_0_0 - flow_2_12_0_0
   - flow_2_13_0_0 - flow_2_15_0_0 - flow_2_16_0_0 - flow_2_18_0_0
   - flow_2_19_0_0 - flow_2_21_0_0 - flow_2_22_0_0 - flow_2_23_0_0
   - flow_2_24_0_0 - flow_2_25_0_0 + flow_3_2_0_0 + flow_4_2_0_0
   + flow_5_2_0_0 + flow_6_2_0_0 + flow_7_2_0_0 + flow_9_2_0_0
   + flow_10_2_0_0 + flow_12_2_0_0 + flow_15_2_0_0 + flow_18_2_0_0 = 1
 one_parent_3: edge_2_3_0_0 + edge_4_3_0_0 + edge_6_3_0_0 + edge_12_3_0_0
   + edge_15_3_0_0 = 1
 consume_one_flow_unit_3: flow_2_3_0_0 - flow_3_2_0_0 - flow_3_5_0_0
   - flow_3_6_0_0 + flow_4_3_0_0 + flow_6_3_0_0 + flow_12_3_0_0
   + flow_15_3_0_0 = 1
 one_parent_4: edge_0_4_0_0 + edge_1_4_0_0 + edge_2_4_0_0 + edge_5_4_0_0
   + edge_6_4_0_0 + edge_9_4_0_0 + edge_12_4_0_0 = 1
 consume_one_flow_unit_4: flow_0_4_0_0 + flow_1_4_0_0 + flow_2_4_0_0
   - flow_4_1_0_0 - flow_4_2_0_0 - flow_4_3_0_0 - flow_4_5_0_0
   - flow_4_6_0_0 - flow_4_7_0_0 - flow_4_9_0_0 - flow_4_10_0_0
   - flow_4_12_0_0 - flow_4_13_0_0 - flow_4_15_0_0 - flow_4_16_0_0
   - flow_4_18_0_0 - flow_4_19_0_0 - flow_4_21_0_0 - flow_4_22_0_0
   - flow_4_23_0_0 - flow_4_24_0_0 - flow_4_25_0_0 + flow_5_4_0_0
   + flow_6_4_0_0 + flow_9_4_0_0 + flow_12_4_0_0 = 1
 one_parent_5: edge_0_5_0_0 + edge_1_5_0_0 + edge_2_5_0_0 + edge_3_5_0_0
   + edge_4_5_0_0 + edge_6_5_0_0 + edge_7_5_0_0 + edge_9_5_0_0
   + edge_12_5_0_0 + edge_15_5_0_0 + edge_18_5_0_0 = 1
 consume_one_flow_unit_5: flow_0_5_0_0 + flow_1_5_0_0 + flow_2_5_0_0
   + flow_3_5_0_0 + flow_4_5_0_0 - flow_5_2_0_0 - flow_5_4_0_0
   - flow_5_6_0_0 - flow_5_7_0_0 - flow_5_9_0_0 - flow_5_10_0_0
   - flow_5_12_0_0 - flow_5_22_0_0 + flow_6_5_0_0 + flow_7_5_0_0
   + flow_9_5_0_0 + flow_12_5_0_0 + flow_15_5_0_0 + flow_18_5_0_0 = 1
 one_parent_6: edge_0_6_0_0 + edge_1_6_0_0 + edge_2_6_0_0 + edge_3_6_0_0
   + edge_4_6_0_0 + edge_5_6_0_0 + edge_7_6_0_0 + edge_9_6_0_0
   + edge_12_6_0_0 + edge_15_6_0_0 + edge_18_6_0_0 = 1
 consume_one_flow_unit_6: flow_0_6_0_0 + flow_1_6_0_0 + flow_2_6_0_0
   + flow_3_6_0_0 + flow_4_6_0_0 + flow_5_6_0_0 - flow_6_2_0_0
   - flow_6_3_0_0 - flow_6_4_0_0 - flow_6_5_0_0 - flow_6_7_0_0
   - flow_6_9_0_0 - flow_6_10_0_0 - flow_6_12_0_0 - flow_6_13_0_0
   - flow_6_15_0_0 - flow_6_16_0_0 - flow_6_18_0_0 - flow_6_19_0_0
   - flow_6_21_0_0 - flow_6_22_0_0 - flow_6_23_0_0 - flow_6_24_0_0
   - flow_6_25_0_0 + flow_7_6_0_0 + flow_9_6_0_0 + flow_12_6_0_0
   + flow_15_6_0_0 + flow_18_6_0_0 = 1
 one_parent_7: edge_2_7_0_0 + edge_4_7_0_0 + edge_5_7_0_0 + edge_6_7_0_0
   + edge_9_7_0_0 + edge_10_7_0_0 + edge_12_7_0_0 + edge_15_7_0_0
   + edge_18_7_0_0 = 1
 consume_one_flow_unit_7: flow_2_7_0_0 + flow_4_7_0_0 + flow_5_7_0_0
   + flow_6_7_0_0 - flow_7_2_0_0 - flow_7_5_0_0 - flow_7_6_0_0
   - flow_7_9_0_0 - flow_7_10_0_0 - flow_7_12_0_0 + flow_9_7_0_0
   + flow_10_7_0_0 + flow_12_7_0_0 + flow_15_7_0_0 + flow_18_7_0_0 = 1
 one_parent_8: = 1
 consume_one_flow_unit_8: = 1
 one_parent_9: edge_2_9_0_0 + edge_4_9_0_0 + edge_5_9_0_0 + edge_6_9_0_0
   + edge_7_9_0_0 + edge_10_9_0_0 + edge_12_9_0_0 + edge_15_9_0_0
   + edge_18_9_0_0 = 1
 consume_one_flow_unit_9: flow_2_9_0_0 + flow_4_9_0_0 + flow_5_9_0_0
   + flow_6_9_0_0 + flow_7_9_0_0 - flow_9_2_0_0 - flow_9_4_0_0
   - flow_9_5_0_0 - flow_9_6_0_0 - flow_9_7_0_0 - flow_9_10_0_0
   - flow_9_12_0_0 - flow_9_13_0_0 - flow_9_15_0_0 - flow_9_16_0_0
   - flow_9_18_0_0 - flow_9_19_0_0 - flow_9_21_0_0 - flow_9_22_0_0
   - flow_9_24_0_0 - flow_9_25_0_0 + flow_10_9_0_0 + flow_12_9_0_0
   + flow_15_9_0_0 + flow_18_9_0_0 = 1
 one_parent_10: edge_2_10_0_0 + edge_4_10_0_0 + edge_5_10_0_0
   + edge_6_10_0_0 + edge_7_10_0_0 + edge_9_10_0_0 + edge_12_10_0_0
   + edge_15_10_0_0 + edge_18_10_0_0 = 1
 consume_one_flow_unit_10: flow_2_10_0_0 + flow_4_10_0_0 + flow_5_10_0_0
   + flow_6_10_0_0 + flow_7_10_0_0 + flow_9_10_0_0 - flow_10_2_0_0
   - flow_10_7_0_0 - flow_10_9_0_0 - flow_10_12_0_0 - flow_10_13_0_0
   + flow_12_10_0_0 + flow_15_10_0_0 + flow_18_10_0_0 = 1
 one_parent_11: = 1
 consume_one_flow_unit_11: = 1
 one_parent_12: edge_0_12_0_0 + edge_2_12_0_0 + edge_4_12_0_0
   + edge_5_12_0_0 + edge_6_12_0_0 + edge_7_12_0_0 + edge_9_12_0_0
   + edge_10_12_0_0 + edge_13_12_0_0 + edge_15_12_0_0 + edge_18_12_0_0
   + edge_21_12_0_0 = 1
 consume_one_flow_unit_12: flow_0_12_0_0 + flow_2_12_0_0 + flow_4_12_0_0
   + flow_5_12_0_0 + flow_6_12_0_0 + flow_7_12_0_0 + flow_9_12_0_0
   + flow_10_12_0_0 - flow_12_2_0_0 - flow_12_3_0_0 - flow_12_4_0_0
   - flow_12_5_0_0 - flow_12_6_0_0 - flow_12_7_0_0 - flow_12_9_0_0
   - flow_12_10_0_0 - flow_12_13_0_0 - flow_12_15_0_0 - flow_12_16_0_0
   - flow_12_18_0_0 - flow_12_19_0_0 - flow_12_21_0_0 - flow_12_22_0_0
   - flow_12_23_0_0 - flow_12_24_0_0 - flow_12_25_0_0 + flow_13_12_0_0
   + flow_15_12_0_0 + flow_18_12_0_0 + flow_21_12_0_0 = 1
 one_parent_13: edge_2_13_0_0 + edge_4_13_0_0 + edge_6_13_0_0
   + edge_9_13_0_0 + edge_10_13_0_0 + edge_12_13_0_0 + edge_15_13_0_0
   + edge_18_13_0_0 + edge_21_13_0_0 = 1
 consume_one_flow_unit_13: flow_2_13_0_0 + flow_4_13_0_0 + flow_6_13_0_0
   + flow_9_13_0_0 + flow_10_13_0_0 + flow_12_13_0_0 - flow_13_12_0_0
   - flow_13_15_0_0 - flow_13_16_0_0 + flow_15_13_0_0 + flow_18_13_0_0
   + flow_21_13_0_0 = 1
 one_parent_14: = 1
 consume_one_flow_unit_14: = 1
 one_parent_15: edge_0_15_0_0 + edge_2_15_0_0 + edge_4_15_0_0
   + edge_6_15_0_0 + edge_9_15_0_0 + edge_12_15_0_0 + edge_13_15_0_0
   + edge_15_15_0_0 + edge_16_15_0_0 + edge_18_15_0_0 + edge_21_15_0_0
   + edge_22_15_0_0 + edge_24_15_0_0 = 1
 consume_one_flow_unit_15: flow_0_15_0_0 + flow_2_15_0_0 + flow_4_15_0_0
   + flow_6_15_0_0 + flow_9_15_0_0 + flow_12_15_0_0 + flow_13_15_0_0
   - flow_15_2_0_0 - flow_15_3_0_0 - flow_15_5_0_0 - flow_15_6_0_0
   - flow_15_7_0_0 - flow_15_9_0_0 - flow_15_10_0_0 - flow_15_12_0_0
   - flow_15_13_0_0 - flow_15_16_0_0 - flow_15_18_0_0 - flow_15_19_0_0
   - flow_15_21_0_0 - flow_15_22_0_0 - flow_15_23_0_0 - flow_15_24_0_0
   - flow_15_25_0_0 + flow_16_15_0_0 + flow_18_15_0_0 + flow_21_15_0_0
   + flow_22_15_0_0 + flow_24_15_0_0 = 1
 one_parent_16: edge_2_16_0_0 + edge_4_16_0_0 + edge_6_16_0_0
   + edge_9_16_0_0 + edge_12_16_0_0 + edge_13_16_0_0 + edge_15_16_0_0
   + edge_18_16_0_0 + edge_21_16_0_0 + edge_24_16_0_0 = 1
 consume_one_flow_unit_16: flow_2_16_0_0 + flow_4_16_0_0 + flow_6_16_0_0
   + flow_9_16_0_0 + flow_12_16_0_0 + flow_13_16_0_0 + flow_15_16_0_0
   - flow_16_15_0_0 - flow_16_18_0_0 - flow_16_19_0_0 + flow_18_16_0_0
   + flow_21_16_0_0 + flow_24_16_0_0 = 1
 one_parent_17: = 1
 consume_one_flow_unit_17: = 1
 one_parent_18: edge_2_18_0_0 + edge_4_18_0_0 + edge_6_18_0_0
   + edge_9_18_0_0 + edge_12_18_0_0 + edge_15_18_0_0 + edge_16_18_0_0
   + edge_19_18_0_0 + edge_21_18_0_0 + edge_24_18_0_0 = 1
 consume_one_flow_unit_18: flow_2_18_0_0 + flow_4_18_0_0 + flow_6_18_0_0
   + flow_9_18_0_0 + flow_12_18_0_0 + flow_15_18_0_0 + flow_16_18_0_0
   - flow_18_2_0_0 - flow_18_5_0_0 - flow_18_6_0_0 - flow_18_7_0_0
   - flow_18_9_0_0 - flow_18_10_0_0 - flow_18_12_0_0 - flow_18_13_0_0
   - flow_18_15_0_0 - flow_18_16_0_0 - flow_18_19_0_0 - flow_18_21_0_0
   - flow_18_22_0_0 - flow_18_23_0_0 - flow_18_24_0_0 - flow_18_25_0_0
   + flow_19_18_0_0 + flow_21_18_0_0 + flow_24_18_0_0 = 1
 one_parent_19: edge_2_19_0_0 + edge_4_19_0_0 + edge_6_19_0_0
   + edge_9_19_0_0 + edge_12_19_0_0 + edge_15_19_0_0 + edge_16_19_0_0
   + edge_18_19_0_0 + edge_21_19_0_0 + edge_23_19_0_0 + edge_24_19_0_0 = 1
 consume_one_flow_unit_19: flow_2_19_0_0 + flow_4_19_0_0 + flow_6_19_0_0
   + flow_9_19_0_0 + flow_12_19_0_0 + flow_15_19_0_0 + flow_16_19_0_0
   + flow_18_19_0_0 - flow_19_18_0_0 - flow_19_21_0_0 - flow_19_22_0_0
   + flow_21_19_0_0 + flow_23_19_0_0 + flow_24_19_0_0 = 1
 one_parent_20: = 1
 consume_one_flow_unit_20: = 1
 one_parent_21: edge_2_21_0_0 + edge_4_21_0_0 + edge_6_21_0_0
   + edge_9_21_0_0 + edge_12_21_0_0 + edge_15_21_0_0 + edge_18_21_0_0
   + edge_19_21_0_0 + edge_22_21_0_0 + edge_23_21_0_0 + edge_24_21_0_0 = 1
 consume_one_flow_unit_21: flow_2_21_0_0 + flow_4_21_0_0 + flow_6_21_0_0
   + flow_9_21_0_0 + flow_12_21_0_0 + flow_15_21_0_0 + flow_18_21_0_0
   + flow_19_21_0_0 - flow_21_12_0_0 - flow_21_13_0_0 - flow_21_15_0_0
   - flow_21_16_0_0 - flow_21_18_0_0 - flow_21_19_0_0 - flow_21_22_0_0
   - flow_21_23_0_0 - flow_21_24_0_0 - flow_21_25_0_0 + flow_22_21_0_0
   + flow_23_21_0_0 + flow_24_21_0_0 = 1
 one_parent_22: edge_2_22_0_0 + edge_4_22_0_0 + edge_5_22_0_0
   + edge_6_22_0_0 + edge_9_22_0_0 + edge_12_22_0_0 + edge_15_22_0_0
   + edge_18_22_0_0 + edge_19_22_0_0 + edge_21_22_0_0 + edge_24_22_0_0 = 1
 consume_one_flow_unit_22: flow_2_22_0_0 + flow_4_22_0_0 + flow_5_22_0_0
   + flow_6_22_0_0 + flow_9_22_0_0 + flow_12_22_0_0 + flow_15_22_0_0
   + flow_18_22_0_0 + flow_19_22_0_0 + flow_21_22_0_0 - flow_22_15_0_0
   - flow_22_21_0_0 - flow_22_24_0_0 + flow_24_22_0_0 = 1
 one_parent_23: edge_2_23_0_0 + edge_4_23_0_0 + edge_6_23_0_0
   + edge_12_23_0_0 + edge_15_23_0_0 + edge_18_23_0_0 + edge_21_23_0_0
   + edge_24_23_0_0 = 1
 consume_one_flow_unit_23: flow_2_23_0_0 + flow_4_23_0_0 + flow_6_23_0_0
   + flow_12_23_0_0 + flow_15_23_0_0 + flow_18_23_0_0 + flow_21_23_0_0
   - flow_23_19_0_0 - flow_23_21_0_0 - flow_23_24_0_0 + flow_24_23_0_0 = 1
 one_parent_24: edge_2_24_0_0 + edge_4_24_0_0 + edge_6_24_0_0
   + edge_9_24_0_0 + edge_12_24_0_0 + edge_15_24_0_0 + edge_18_24_0_0
   + edge_21_24_0_0 + edge_22_24_0_0 + edge_23_24_0_0 + edge_25_24_0_0 = 1
 consume_one_flow_unit_24: flow_2_24_0_0 + flow_4_24_0_0 + flow_6_24_0_0
   + flow_9_24_0_0 + flow_12_24_0_0 + flow_15_24_0_0 + flow_18_24_0_0
   + flow_21_24_0_0 + flow_22_24_0_0 + flow_23_24_0_0 - flow_24_15_0_0
   - flow_24_16_0_0 - flow_24_18_0_0 - flow_24_19_0_0 - flow_24_21_0_0
   - flow_24_22_0_0 - flow_24_23_0_0 - flow_24_25_0_0 + flow_25_24_0_0 = 1
 one_parent_25: edge_2_25_0_0 + edge_4_25_0_0 + edge_6_25_0_0
   + edge_9_25_0_0 + edge_12_25_0_0 + edge_15_25_0_0 + edge_18_25_0_0
   + edge_21_25_0_0 + edge_24_25_0_0 = 1
 consume_one_flow_unit_25: flow_2_25_0_0 + flow_4_25_0_0 + flow_6_25_0_0
   + flow_9_25_0_0 + flow_12_25_0_0 + flow_15_25_0_0 + flow_18_25_0_0
   + flow_21_25_0_0 + flow_24_25_0_0 - flow_25_24_0_0 = 1
 root_flow: flow_0_1_0_0 + flow_0_2_0_0 + flow_0_4_0_0 + flow_0_5_0_0
   + flow_0_6_0_0 + flow_0_12_0_0 + flow_0_15_0_0 = 25
 inactive_no_flow_0_1_0_0: flow_0_1_0_0 - 1000 edge_0_1_0_0 <= 0
 inactive_no_flow_0_2_0_0: flow_0_2_0_0 - 1000 edge_0_2_0_0 <= 0
 inactive_no_flow_0_4_0_0: flow_0_4_0_0 - 1000 edge_0_4_0_0 <= 0
 inactive_no_flow_0_5_0_0: flow_0_5_0_0 - 1000 edge_0_5_0_0 <= 0
 inactive_no_flow_0_6_0_0: flow_0_6_0_0 - 1000 edge_0_6_0_0 <= 0
 inactive_no_flow_0_12_0_0: flow_0_12_0_0 - 1000 edge_0_12_0_0 <= 0
 inactive_no_flow_0_15_0_0: flow_0_15_0_0 - 1000 edge_0_15_0_0 <= 0
 inactive_no_flow_1_2_0_0: flow_1_2_0_0 - 1000 edge_1_2_0_0 <= 0
 inactive_no_flow_1_4_0_0: flow_1_4_0_0 - 1000 edge_1_4_0_0 <= 0
 inactive_no_flow_1_5_0_0: flow_1_5_0_0 - 1000 edge_1_5_0_0 <= 0
 inactive_no_flow_1_6_0_0: flow_1_6_0_0 - 1000 edge_1_6_0_0 <= 0
 inactive_no_flow_2_1_0_0: flow_2_1_0_0 - 1000 edge_2_1_0_0 <= 0
 inactive_no_flow_2_3_0_0: flow_2_3_0_0 - 1000 edge_2_3_0_0 <= 0
 inactive_no_flow_2_4_0_0: flow_2_4_0_0 - 1000 edge_2_4_0_0 <= 0
 inactive_no_flow_2_5_0_0: flow_2_5_0_0 - 1000 edge_2_5_0_0 <= 0
 inactive_no_flow_2_6_0_0: flow_2_6_0_0 - 1000 edge_2_6_0_0 <= 0
 inactive_no_flow_2_7_0_0: flow_2_7_0_0 - 1000 edge_2_7_0_0 <= 0
 inactive_no_flow_2_9_0_0: flow_2_9_0_0 - 1000 edge_2_9_0_0 <= 0
 inactive_no_flow_2_10_0_0: flow_2_10_0_0 - 1000 edge_2_10_0_0 <= 0
 inactive_no_flow_2_12_0_0: flow_2_12_0_0 - 1000 edge_2_12_0_0 <= 0
 inactive_no_flow_2_13_0_0: flow_2_13_0_0 - 1000 edge_2_13_0_0 <= 0
 inactive_no_flow_2_15_0_0: flow_2_15_0_0 - 1000 edge_2_15_0_0 <= 0
 inactive_no_flow_2_16_0_0: flow_2_16_0_0 - 1000 edge_2_16_0_0 <= 0
 inactive_no_flow_2_18_0_0: flow_2_18_0_0 - 1000 edge_2_18_0_0 <= 0
 inactive_no_flow_2_19_0_0: flow_2_19_0_0 - 1000 edge_2_19_0_0 <= 0
 inactive_no_flow_2_21_0_0: flow_2_21_0_0 - 1000 edge_2_21_0_0 <= 0
 inactive_no_flow_2_22_0_0: flow_2_22_0_0 - 1000 edge_2_22_0_0 <= 0
 inactive_no_flow_2_23_0_0: flow_2_23_0_0 - 1000 edge_2_23_0_0 <= 0
 inactive_no_flow_2_24_0_0: flow_2_24_0_0 - 1000 edge_2_24_0_0 <= 0
 inactive_no_flow_2_25_0_0: flow_2_25_0_0 - 1000 edge_2_25_0_0 <= 0
 inactive_no_flow_3_2_0_0: flow_3_2_0_0 - 1000 edge_3_2_0_0 <= 0
 inactive_no_flow_3_5_0_0: flow_3_5_0_0 - 1000 edge_3_5_0_0 <= 0
 inactive_no_flow_3_6_0_0: flow_3_6_0_0 - 1000 edge_3_6_0_0 <= 0
 inactive_no_flow_4_1_0_0: flow_4_1_0_0 - 1000 edge_4_1_0_0 <= 0
 inactive_no_flow_4_2_0_0: flow_4_2_0_0 - 1000 edge_4_2_0_0 <= 0
 inactive_no_flow_4_3_0_0: flow_4_3_0_0 - 1000 edge_4_3_0_0 <= 0
 inactive_no_flow_4_5_0_0: flow_4_5_0_0 - 1000 edge_4_5_0_0 <= 0
 inactive_no_flow_4_6_0_0: flow_4_6_0_0 - 1000 edge_4_6_0_0 <= 0
 inactive_no_flow_4_7_0_0: flow_4_7_0_0 - 1000 edge_4_7_0_0 <= 0
 inactive_no_flow_4_9_0_0: flow_4_9_0_0 - 1000 edge_4_9_0_0 <= 0
 inactive_no_flow_4_10_0_0: flow_4_10_0_0 - 1000 edge_4_10_0_0 <= 0
 inactive_no_flow_4_12_0_0: flow_4_12_0_0 - 1000 edge_4_12_0_0 <= 0
 inactive_no_flow_4_13_0_0: flow_4_13_0_0 - 1000 edge_4_13_0_0 <= 0
 inactive_no_flow_4_15_0_0: flow_4_15_0_0 - 1000 edge_4_15_0_0 <= 0
 inactive_no_flow_4_16_0_0: flow_4_16_0_0 - 1000 edge_4_16_0_0 <= 0
 inactive_no_flow_4_18_0_0: flow_4_18_0_0 - 1000 edge_4_18_0_0 <= 0
 inactive_no_flow_4_19_0_0: flow_4_19_0_0 - 1000 edge_4_19_0_0 <= 0
 inactive_no_flow_4_21_0_0: flow_4_21_0_0 - 1000 edge_4_21_0_0 <= 0
 inactive_no_flow_4_22_0_0: flow_4_22_0_0 - 1000 edge_4_22_0_0 <= 0
 inactive_no_flow_4_23_0_0: flow_4_23_0_0 - 1000 edge_4_23_0_0 <= 0
 inactive_no_flow_4_24_0_0: flow_4_24_0_0 - 1000 edge_4_24_0_0 <= 0
 inactive_no_flow_4_25_0_0: flow_4_25_0_0 - 1000 edge_4_25_0_0 <= 0
 inactive_no_flow_5_2_0_0: flow_5_2_0_0 - 1000 edge_5_2_0_0 <= 0
 inactive_no_flow_5_4_0_0: flow_5_4_0_0 - 1000 edge_5_4_0_0 <= 0
 inactive_no_flow_5_6_0_0: flow_5_6_0_0 - 1000 edge_5_6_0_0 <= 0
 inactive_no_flow_5_7_0_0: flow_5_7_0_0 - 1000 edge_5_7_0_0 <= 0
 inactive_no_flow_5_9_0_0: flow_5_9_0_0 - 1000 edge_5_9_0_0 <= 0
 inactive_no_flow_5_10_0_0: flow_5_10_0_0 - 1000 edge_5_10_0_0 <= 0
 inactive_no_flow_5_12_0_0: flow_5_12_0_0 - 1000 edge_5_12_0_0 <= 0
 inactive_no_flow_5_22_0_0: flow_5_22_0_0 - 1000 edge_5_22_0_0 <= 0
 inactive_no_flow_6_2_0_0: flow_6_2_0_0 - 1000 edge_6_2_0_0 <= 0
 inactive_no_flow_6_3_0_0: flow_6_3_0_0 - 1000 edge_6_3_0_0 <= 0
 inactive_no_flow_6_4_0_0: flow_6_4_0_0 - 1000 edge_6_4_0_0 <= 0
 inactive_no_flow_6_5_0_0: flow_6_5_0_0 - 1000 edge_6_5_0_0 <= 0
 inactive_no_flow_6_7_0_0: flow_6_7_0_0 - 1000 edge_6_7_0_0 <= 0
 inactive_no_flow_6_9_0_0: flow_6_9_0_0 - 1000 edge_6_9_0_0 <= 0
 inactive_no_flow_6_10_0_0: flow_6_10_0_0 - 1000 edge_6_10_0_0 <= 0
 inactive_no_flow_6_12_0_0: flow_6_12_0_0 - 1000 edge_6_12_0_0 <= 0
 inactive_no_flow_6_13_0_0: flow_6_13_0_0 - 1000 edge_6_13_0_0 <= 0
 inactive_no_flow_6_15_0_0: flow_6_15_0_0 - 1000 edge_6_15_0_0 <= 0
 inactive_no_flow_6_16_0_0: flow_6_16_0_0 - 1000 edge_6_16_0_0 <= 0
 inactive_no_flow_6_18_0_0: flow_6_18_0_0 - 1000 edge_6_18_0_0 <= 0
 inactive_no_flow_6_19_0_0: flow_6_19_0_0 - 1000 edge_6_19_0_0 <= 0
 inactive_no_flow_6_21_0_0: flow_6_21_0_0 - 1000 edge_6_21_0_0 <= 0
 inactive_no_flow_6_22_0_0: flow_6_22_0_0 - 1000 edge_6_22_0_0 <= 0
 inactive_no_flow_6_23_0_0: flow_6_23_0_0 - 1000 edge_6_23_0_0 <= 0
 inactive_no_flow_6_24_0_0: flow_6_24_0_0 - 1000 edge_6_24_0_0 <= 0
 inactive_no_flow_6_25_0_0: flow_6_25_0_0 - 1000 edge_6_25_0_0 <= 0
 inactive_no_flow_7_2_0_0: flow_7_2_0_0 - 1000 edge_7_2_0_0 <= 0
 inactive_no_flow_7_5_0_0: flow_7_5_0_0 - 1000 edge_7_5_0_0 <= 0
 inactive_no_flow_7_6_0_0: flow_7_6_0_0 - 1000 edge_7_6_0_0 <= 0
 inactive_no_flow_7_9_0_0: flow_7_9_0_0 - 1000 edge_7_9_0_0 <= 0
 inactive_no_flow_7_10_0_0: flow_7_10_0_0 - 1000 edge_7_10_0_0 <= 0
 inactive_no_flow_7_12_0_0: flow_7_12_0_0 - 1000 edge_7_12_0_0 <= 0
 inactive_no_flow_9_2_0_0: flow_9_2_0_0 - 1000 edge_9_2_0_0 <= 0
 inactive_no_flow_9_4_0_0: flow_9_4_0_0 - 1000 edge_9_4_0_0 <= 0
 inactive_no_flow_9_5_0_0: flow_9_5_0_0 - 1000 edge_9_5_0_0 <= 0
 inactive_no_flow_9_6_0_0: flow_9_6_0_0 - 1000 edge_9_6_0_0 <= 0
 inactive_no_flow_9_7_0_0: flow_9_7_0_0 - 1000 edge_9_7_0_0 <= 0
 inactive_no_flow_9_10_0_0: flow_9_10_0_0 - 1000 edge_9_10_0_0 <= 0
 inactive_no_flow_9_12_0_0: flow_9_12_0_0 - 1000 edge_9_12_0_0 <= 0
 inactive_no_flow_9_13_0_0: flow_9_13_0_0 - 1000 edge_9_13_0_0 <= 0
 inactive_no_flow_9_15_0_0: flow_9_15_0_0 - 1000 edge_9_15_0_0 <= 0
 inactive_no_flow_9_16_0_0: flow_9_16_0_0 - 1000 edge_9_16_0_0 <= 0
 inactive_no_flow_9_18_0_0: flow_9_18_0_0 - 1000 edge_9_18_0_0 <= 0
 inactive_no_flow_9_19_0_0: flow_9_19_0_0 - 1000 edge_9_19_0_0 <= 0
 inactive_no_flow_9_21_0_0: flow_9_21_0_0 - 1000 edge_9_21_0_0 <= 0
 inactive_no_flow_9_22_0_0: flow_9_22_0_0 - 1000 edge_9_22_0_0 <= 0
 inactive_no_flow_9_24_0_0: flow_9_24_0_0 - 1000 edge_9_24_0_0 <= 0
 inactive_no_flow_9_25_0_0: flow_9_25_0_0 - 1000 edge_9_25_0_0 <= 0
 inactive_no_flow_10_2_0_0: flow_10_2_0_0 - 1000 edge_10_2_0_0 <= 0
 inactive_no_flow_10_7_0_0: flow_10_7_0_0 - 1000 edge_10_7_0_0 <= 0
 inactive_no_flow_10_9_0_0: flow_10_9_0_0 - 1000 edge_10_9_0_0 <= 0
 inactive_no_flow_10_12_0_0: flow_10_12_0_0 - 1000 edge_10_12_0_0 <= 0
 inactive_no_flow_10_13_0_0: flow_10_13_0_0 - 1000 edge_10_13_0_0 <= 0
 inactive_no_flow_12_2_0_0: flow_12_2_0_0 - 1000 edge_12_2_0_0 <= 0
 inactive_no_flow_12_3_0_0: flow_12_3_0_0 - 1000 edge_12_3_0_0 <= 0
 inactive_no_flow_12_4_0_0: flow_12_4_0_0 - 1000 edge_12_4_0_0 <= 0
 inactive_no_flow_12_5_0_0: flow_12_5_0_0 - 1000 edge_12_5_0_0 <= 0
 inactive_no_flow_12_6_0_0: flow_12_6_0_0 - 1000 edge_12_6_0_0 <= 0
 inactive_no_flow_12_7_0_0: flow_12_7_0_0 - 1000 edge_12_7_0_0 <= 0
 inactive_no_flow_12_9_0_0: flow_12_9_0_0 - 1000 edge_12_9_0_0 <= 0
 inactive_no_flow_12_10_0_0: flow_12_10_0_0 - 1000 edge_12_10_0_0 <= 0
 inactive_no_flow_12_13_0_0: flow_12_13_0_0 - 1000 edge_12_13_0_0 <= 0
 inactive_no_flow_12_15_0_0: flow_12_15_0_0 - 1000 edge_12_15_0_0 <= 0
 inactive_no_flow_12_16_0_0: flow_12_16_0_0 - 1000 edge_12_16_0_0 <= 0
 inactive_no_flow_12_18_0_0: flow_12_18_0_0 - 1000 edge_12_18_0_0 <= 0
 inactive_no_flow_12_19_0_0: flow_12_19_0_0 - 1000 edge_12_19_0_0 <= 0
 inactive_no_flow_12_21_0_0: flow_12_21_0_0 - 1000 edge_12_21_0_0 <= 0
 inactive_no_flow_12_22_0_0: flow_12_22_0_0 - 1000 edge_12_22_0_0 <= 0
 inactive_no_flow_12_23_0_0: flow_12_23_0_0 - 1000 edge_12_23_0_0 <= 0
 inactive_no_flow_12_24_0_0: flow_12_24_0_0 - 1000 edge_12_24_0_0 <= 0
 inactive_no_flow_12_25_0_0: flow_12_25_0_0 - 1000 edge_12_25_0_0 <= 0
 inactive_no_flow_13_12_0_0: flow_13_12_0_0 - 1000 edge_13_12_0_0 <= 0
 inactive_no_flow_13_15_0_0: flow_13_15_0_0 - 1000 edge_13_15_0_0 <= 0
 inactive_no_flow_13_16_0_0: flow_13_16_0_0 - 1000 edge_13_16_0_0 <= 0
 inactive_no_flow_15_2_0_0: flow_15_2_0_0 - 1000 edge_15_2_0_0 <= 0
 inactive_no_flow_15_3_0_0: flow_15_3_0_0 - 1000 edge_15_3_0_0 <= 0
 inactive_no_flow_15_5_0_0: flow_15_5_0_0 - 1000 edge_15_5_0_0 <= 0
 inactive_no_flow_15_6_0_0: flow_15_6_0_0 - 1000 edge_15_6_0_0 <= 0
 inactive_no_flow_15_7_0_0: flow_15_7_0_0 - 1000 edge_15_7_0_0 <= 0
 inactive_no_flow_15_9_0_0: flow_15_9_0_0 - 1000 edge_15_9_0_0 <= 0
 inactive_no_flow_15_10_0_0: flow_15_10_0_0 - 1000 edge_15_10_0_0 <= 0
 inactive_no_flow_15_12_0_0: flow_15_12_0_0 - 1000 edge_15_12_0_0 <= 0
 inactive_no_flow_15_13_0_0: flow_15_13_0_0 - 1000 edge_15_13_0_0 <= 0
 inactive_no_flow_15_15_0_0: flow_15_15_0_0 - 1000 edge_15_15_0_0 <= 0
 inactive_no_flow_15_16_0_0: flow_15_16_0_0 - 1000 edge_15_16_0_0 <= 0
 inactive_no_flow_15_18_0_0: flow_15_18_0_0 - 1000 edge_15_18_0_0 <= 0
 inactive_no_flow_15_19_0_0: flow_15_19_0_0 - 1000 edge_15_19_0_0 <= 0
 inactive_no_flow_15_21_0_0: flow_15_21_0_0 - 1000 edge_15_21_0_0 <= 0
 inactive_no_flow_15_22_0_0: flow_15_22_0_0 - 1000 edge_15_22_0_0 <= 0
 inactive_no_flow_15_23_0_0: flow_15_23_0_0 - 1000 edge_15_23_0_0 <= 0
 inactive_no_flow_15_24_0_0: flow_15_24_0_0 - 1000 edge_15_24_0_0 <= 0
 inactive_no_flow_15_25_0_0: flow_15_25_0_0 - 1000 edge_15_25_0_0 <= 0
 inactive_no_flow_16_15_0_0: flow_16_15_0_0 - 1000 edge_16_15_0_0 <= 0
 inactive_no_flow_16_18_0_0: flow_16_18_0_0 - 1000 edge_16_18_0_0 <= 0
 inactive_no_flow_16_19_0_0: flow_16_19_0_0 - 1000 edge_16_19_0_0 <= 0
 inactive_no_flow_18_2_0_0: flow_18_2_0_0 - 1000 edge_18_2_0_0 <= 0
 inactive_no_flow_18_5_0_0: flow_18_5_0_0 - 1000 edge_18_5_0_0 <= 0
 inactive_no_flow_18_6_0_0: flow_18_6_0_0 - 1000 edge_18_6_0_0 <= 0
 inactive_no_flow_18_7_0_0: flow_18_7_0_0 - 1000 edge_18_7_0_0 <= 0
 inactive_no_flow_18_9_0_0: flow_18_9_0_0 - 1000 edge_18_9_0_0 <= 0
 inactive_no_flow_18_10_0_0: flow_18_10_0_0 - 1000 edge_18_10_0_0 <= 0
 inactive_no_flow_18_12_0_0: flow_18_12_0_0 - 1000 edge_18_12_0_0 <= 0
 inactive_no_flow_18_13_0_0: flow_18_13_0_0 - 1000 edge_18_13_0_0 <= 0
 inactive_no_flow_18_15_0_0: flow_18_15_0_0 - 1000 edge_18_15_0_0 <= 0
 inactive_no_flow_18_16_0_0: flow_18_16_0_0 - 1000 edge_18_16_0_0 <= 0
 inactive_no_flow_18_19_0_0: flow_18_19_0_0 - 1000 edge_18_19_0_0 <= 0
 inactive_no_flow_18_21_0_0: flow_18_21_0_0 - 1000 edge_18_21_0_0 <= 0
 inactive_no_flow_18_22_0_0: flow_18_22_0_0 - 1000 edge_18_22_0_0 <= 0
 inactive_no_flow_18_23_0_0: flow_18_23_0_0 - 1000 edge_18_23_0_0 <= 0
 inactive_no_flow_18_24_0_0: flow_18_24_0_0 - 1000 edge_18_24_0_0 <= 0
 inactive_no_flow_18_25_0_0: flow_18_25_0_0 - 1000 edge_18_25_0_0 <= 0
 inactive_no_flow_19_18_0_0: flow_19_18_0_0 - 1000 edge_19_18_0_0 <= 0
 inactive_no_flow_19_21_0_0: flow_19_21_0_0 - 1000 edge_19_21_0_0 <= 0
 inactive_no_flow_19_22_0_0: flow_19_22_0_0 - 1000 edge_19_22_0_0 <= 0
 inactive_no_flow_21_12_0_0: flow_21_12_0_0 - 1000 edge_21_12_0_0 <= 0
 inactive_no_flow_21_13_0_0: flow_21_13_0_0 - 1000 edge_21_13_0_0 <= 0
 inactive_no_flow_21_15_0_0: flow_21_15_0_0 - 1000 edge_21_15_0_0 <= 0
 inactive_no_flow_21_16_0_0: flow_21_16_0_0 - 1000 edge_21_16_0_0 <= 0
 inactive_no_flow_21_18_0_0: flow_21_18_0_0 - 1000 edge_21_18_0_0 <= 0
 inactive_no_flow_21_19_0_0: flow_21_19_0_0 - 1000 edge_21_19_0_0 <= 0
 inactive_no_flow_21_22_0_0: flow_21_22_0_0 - 1000 edge_21_22_0_0 <= 0
 inactive_no_flow_21_23_0_0: flow_21_23_0_0 - 1000 edge_21_23_0_0 <= 0
 inactive_no_flow_21_24_0_0: flow_21_24_0_0 - 1000 edge_21_24_0_0 <= 0
 inactive_no_flow_21_25_0_0: flow_21_25_0_0 - 1000 edge_21_25_0_0 <= 0
 inactive_no_flow_22_15_0_0: flow_22_15_0_0 - 1000 edge_22_15_0_0 <= 0
 inactive_no_flow_22_21_0_0: flow_22_21_0_0 - 1000 edge_22_21_0_0 <= 0
 inactive_no_flow_22_24_0_0: flow_22_24_0_0 - 1000 edge_22_24_0_0 <= 0
 inactive_no_flow_23_19_0_0: flow_23_19_0_0 - 1000 edge_23_19_0_0 <= 0
 inactive_no_flow_23_21_0_0: flow_23_21_0_0 - 1000 edge_23_21_0_0 <= 0
 inactive_no_flow_23_24_0_0: flow_23_24_0_0 - 1000 edge_23_24_0_0 <= 0
 inactive_no_flow_24_15_0_0: flow_24_15_0_0 - 1000 edge_24_15_0_0 <= 0
 inactive_no_flow_24_16_0_0: flow_24_16_0_0 - 1000 edge_24_16_0_0 <= 0
 inactive_no_flow_24_18_0_0: flow_24_18_0_0 - 1000 edge_24_18_0_0 <= 0
 inactive_no_flow_24_19_0_0: flow_24_19_0_0 - 1000 edge_24_19_0_0 <= 0
 inactive_no_flow_24_21_0_0: flow_24_21_0_0 - 1000 edge_24_21_0_0 <= 0
 inactive_no_flow_24_22_0_0: flow_24_22_0_0 - 1000 edge_24_22_0_0 <= 0
 inactive_no_flow_24_23_0_0: flow_24_23_0_0 - 1000 edge_24_23_0_0 <= 0
 inactive_no_flow_24_25_0_0: flow_24_25_0_0 - 1000 edge_24_25_0_0 <= 0
 inactive_no_flow_25_24_0_0: flow_25_24_0_0 - 1000 edge_25_24_0_0 <= 0
Bounds
Binaries
 edge_0_1_0_0 edge_0_2_0_0 edge_0_4_0_0 edge_0_5_0_0 edge_0_6_0_0
 edge_0_12_0_0 edge_0_15_0_0 edge_1_2_0_0 edge_1_4_0_0 edge_1_5_0_0
 edge_1_6_0_0 edge_2_1_0_0 edge_2_3_0_0 edge_2_4_0_0 edge_2_5_0_0
 edge_2_6_0_0 edge_2_7_0_0 edge_2_9_0_0 edge_2_10_0_0 edge_2_12_0_0
 edge_2_13_0_0 edge_2_15_0_0 edge_2_16_0_0 edge_2_18_0_0 edge_2_19_0_0
 edge_2_21_0_0 edge_2_22_0_0 edge_2_23_0_0 edge_2_24_0_0 edge_2_25_0_0
 edge_3_2_0_0 edge_3_5_0_0 edge_3_6_0_0 edge_4_1_0_0 edge_4_2_0_0
 edge_4_3_0_0 edge_4_5_0_0 edge_4_6_0_0 edge_4_7_0_0 edge_4_9_0_0
 edge_4_10_0_0 edge_4_12_0_0 edge_4_13_0_0 edge_4_15_0_0 edge_4_16_0_0
 edge_4_18_0_0 edge_4_19_0_0 edge_4_21_0_0 edge_4_22_0_0 edge_4_23_0_0
 edge_4_24_0_0 edge_4_25_0_0 edge_5_2_0_0 edge_5_4_0_0 edge_5_6_0_0
 edge_5_7_0_0 edge_5_9_0_0 edge_5_10_0_0 edge_5_12_0_0 edge_5_22_0_0
 edge_6_2_0_0 edge_6_3_0_0 edge_6_4_0_0 edge_6_5_0_0 edge_6_7_0_0
 edge_6_9_0_0 edge_6_10_0_0 edge_6_12_0_0 edge_6_13_0_0 edge_6_15_0_0
 edge_6_16_0_0 edge_6_18_0_0 edge_6_19_0_0 edge_6_21_0_0 edge_6_22_0_0
 edge_6_23_0_0 edge_6_24_0_0 edge_6_25_0_0 edge_7_2_0_0 edge_7_5_0_0
 edge_7_6_0_0 edge_7_9_0_0 edge_7_10_0_0 edge_7_12_0_0 edge_9_2_0_0
 edge_9_4_0_0 edge_9_5_0_0 edge_9_6_0_0 edge_9_7_0_0 edge_9_10_0_0
 edge_9_12_0_0 edge_9_13_0_0 edge_9_15_0_0 edge_9_16_0_0 edge_9_18_0_0
 edge_9_19_0_0 edge_9_21_0_0 edge_9_22_0_0 edge_9_24_0_0 edge_9_25_0_0
 edge_10_2_0_0 edge_10_7_0_0 edge_10_9_0_0 edge_10_12_0_0 edge_10_13_0_0
 edge_12_2_0_0 edge_12_3_0_0 edge_12_4_0_0 edge_12_5_0_0 edge_12_6_0_0
 edge_12_7_0_0 edge_12_9_0_0 edge_12_10_0_0 edge_12_13_0_0 edge_12_15_0_0
 edge_12_16_0_0 edge_12_18_0_0 edge_12_19_0_0 edge_12_21_0_0 edge_12_22_0_0
 edge_12_23_0_0 edge_12_24_0_0 edge_12_25_0_0 edge_13_12_0_0 edge_13_15_0_0
 edge_13_16_0_0 edge_15_2_0_0 edge_15_3_0_0 edge_15_5_0_0 edge_15_6_0_0
 edge_15_7_0_0 edge_15_9_0_0 edge_15_10_0_0 edge_15_12_0_0 edge_15_13_0_0
 edge_15_15_0_0 edge_15_16_0_0 edge_15_18_0_0 edge_15_19_0_0 edge_15_21_0_0
 edge_15_22_0_0 edge_15_23_0_0 edge_15_24_0_0 edge_15_25_0_0 edge_16_15_0_0
 edge_16_18_0_0 edge_16_19_0_0 edge_18_2_0_0 edge_18_5_0_0 edge_18_6_0_0
 edge_18_7_0_0 edge_18_9_0_0 edge_18_10_0_0 edge_18_12_0_0 edge_18_13_0_0
 edge_18_15_0_0 edge_18_16_0_0 edge_18_19_0_0 edge_18_21_0_0 edge_18_22_0_0
 edge_18_23_0_0 edge_18_24_0_0 edge_18_25_0_0 edge_19_18_0_0 edge_19_21_0_0
 edge_19_22_0_0 edge_21_12_0_0 edge_21_13_0_0 edge_21_15_0_0 edge_21_16_0_0
 edge_21_18_0_0 edge_21_19_0_0 edge_21_22_0_0 edge_21_23_0_0 edge_21_24_0_0
 edge_21_25_0_0 edge_22_15_0_0 edge_22_21_0_0 edge_22_24_0_0 edge_23_19_0_0
 edge_23_21_0_0 edge_23_24_0_0 edge_24_15_0_0 edge_24_16_0_0 edge_24_18_0_0
 edge_24_19_0_0 edge_24_21_0_0 edge_24_22_0_0 edge_24_23_0_0 edge_24_25_0_0
 edge_25_24_0_0
End
